
Log started (V12.10.0.0) Sun Apr  4 09:19:50 2021


Problem 'asset.lp' read.
Read time = 0.01 sec. (0.19 ticks)
New value for default parallel thread count: 1
New value for time limit in seconds: 300
Version identifier: 12.10.0.0 | 2019-11-26 | 843d4de
CPXPARAM_Threads                                 1
CPXPARAM_TimeLimit                               300
Found incumbent of value -0.883640 after 0.00 sec. (0.09 ticks)
Tried aggregator 3 times.
MIP Presolve eliminated 700 rows and 454 columns.
MIP Presolve modified 1725 coefficients.
Aggregator did 482 substitutions.
Reduced MIP has 681 rows, 712 columns, and 3060 nonzeros.
Reduced MIP has 609 binaries, 69 generals, 0 SOSs, and 0 indicators.
Presolve time = 0.01 sec. (7.18 ticks)
Probing fixed 178 vars, tightened 22 bounds.
Probing time = 0.00 sec. (2.32 ticks)
Cover probing fixed 0 vars, tightened 83 bounds.
Tried aggregator 2 times.
MIP Presolve eliminated 257 rows and 243 columns.
MIP Presolve modified 60 coefficients.
Aggregator did 1 substitutions.
Reduced MIP has 423 rows, 463 columns, and 1680 nonzeros.
Reduced MIP has 392 binaries, 40 generals, 0 SOSs, and 0 indicators.
Presolve time = 0.00 sec. (2.61 ticks)
Probing time = 0.00 sec. (0.99 ticks)
Tried aggregator 1 time.
Detecting symmetries...
MIP Presolve modified 48 coefficients.
Reduced MIP has 423 rows, 463 columns, and 1680 nonzeros.
Reduced MIP has 392 binaries, 40 generals, 0 SOSs, and 0 indicators.
Presolve time = 0.00 sec. (1.18 ticks)
Probing time = 0.00 sec. (1.01 ticks)
Clique table members: 1168.
MIP emphasis: balance optimality and feasibility.
MIP search method: dynamic search.
Parallel mode: none, using 1 thread.
Root relaxation solution time = 0.00 sec. (4.13 ticks)

        Nodes                                         Cuts/
   Node  Left     Objective  IInf  Best Integer    Best Bound    ItCnt     Gap

*     0+    0                           -0.8836      388.6122              --- 
      0     0      277.8094   128       -0.8836      277.8094      345     --- 
      0     0      265.5524   128       -0.8836     Cuts: 205      550     --- 
      0     0      262.1251   128       -0.8836     Cuts: 161      689     --- 
      0     0      260.5060   128       -0.8836      Cuts: 64      774     --- 
      0     0      260.0433   128       -0.8836      Cuts: 93      840     --- 
      0     0      259.6073   128       -0.8836      Cuts: 34      895     --- 
Detecting symmetries...
      0     0      258.0491   128       -0.8836      Cuts: 33      944     --- 
      0     0      257.4774   128       -0.8836      Cuts: 30      980     --- 
      0     0      256.7234   128       -0.8836      Cuts: 43     1030     --- 
      0     0      256.2452   128       -0.8836      Cuts: 52     1069     --- 
*     0+    0                          215.8437      256.2452            18.72%
      0     0      256.0620   128      215.8437      Cuts: 81     1101   18.63%
*     0+    0                          226.5044      256.0620            13.05%
      0     0      256.0514   128      226.5044      Cuts: 53     1153   13.04%
      0     0      255.9809   128      226.5044      Cuts: 52     1180   13.01%
      0     0      255.7638   128      226.5044      Cuts: 22     1234   12.92%
      0     0      255.6819   128      226.5044      Cuts: 36     1274   12.88%
      0     0      255.5067   128      226.5044      Cuts: 52     1301   12.80%
      0     0      255.5067   128      226.5044      Cuts: 37     1320   12.80%
*     0+    0                          226.5066      255.5067            12.80%
*     0+    0                          226.5067      255.5067            12.80%
      0     0        cutoff            226.5067      255.5067     1320   12.80%
Detecting symmetries...
      0     2      255.5067    94      226.5067      255.5066     1320   12.80%
Elapsed time = 0.16 sec. (144.56 ticks, tree = 0.01 MB, solutions = 4)
*    20+   20                          238.8059      255.5066             6.99%
*    50+   44                          240.7248      255.5057             6.14%
*    70+   64                          241.4459      255.5057             5.82%
*   170+  142                          241.4472      255.5050             5.82%
    320   262      253.4213    64      241.4472      255.5035     7507    5.82%
    628   496      253.8391    97      241.4472      255.4998    14210    5.82%
    870   678      249.1962    90      241.4472      255.4977    21219    5.82%

Performing restart 1

Repeating presolve.
Tried aggregator 2 times.
MIP Presolve eliminated 13 rows and 16 columns.
MIP Presolve modified 231 coefficients.
Aggregator did 1 substitutions.
Reduced MIP has 409 rows, 446 columns, and 1452 nonzeros.
Reduced MIP has 377 binaries, 40 generals, 0 SOSs, and 0 indicators.
Presolve time = 0.00 sec. (2.18 ticks)
Tried aggregator 1 time.
Reduced MIP has 409 rows, 446 columns, and 1452 nonzeros.
Reduced MIP has 377 binaries, 40 generals, 0 SOSs, and 0 indicators.
Presolve time = 0.00 sec. (1.09 ticks)
Represolve time = 0.01 sec. (8.40 ticks)
    990     0      254.9466    86      241.4472      Cuts: 73    26465    5.59%
    990     0      253.8365    86      241.4472      Cuts: 77    26579    5.13%
    990     0      253.6761    86      241.4472      Cuts: 76    26648    5.06%
    990     0      253.6374    86      241.4472      Cuts: 62    26697    5.05%
    990     0      253.5661    86      241.4472      Cuts: 90    26735    5.02%
    990     0      253.5475    86      241.4472      Cuts: 61    26792    5.01%
    990     0      253.5471    86      241.4472      Cuts: 75    26842    5.01%
    990     0      253.5380    86      241.4472      Cuts: 36    26875    5.01%
    990     0      253.5090    86      241.4472      Cuts: 36    26923    5.00%
    990     0      253.4081    86      241.4472      Cuts: 46    26987    4.95%
    990     0      253.4077    86      241.4472      Cuts: 55    27018    4.95%
    990     0      252.9229    86      241.4472      Cuts: 35    27115    4.75%
    990     0      252.9227    86      241.4472      Cuts: 40    27164    4.75%
    990     0      252.8201    86      241.4472      Cuts: 30    27218    4.71%
    990     0      252.8011    86      241.4472      Cuts: 33    27250    4.70%
    990     0      252.7675    86      241.4472      Cuts: 36    27303    4.69%
    990     0      252.7604    86      241.4472      Cuts: 24    27342    4.69%
    990     0      252.7603    86      241.4472      Cuts: 21    27363    4.69%
*   990+    0                          241.4478      252.7603             4.69%
    990     0        cutoff            241.4478      252.7603    27363    4.69%
    990     2      252.7603   164      241.4478      252.7367    27363    4.68%
    994     6      249.2255   137      241.4478      252.4762    27745    4.57%
   1002    12      251.3404   129      241.4478      252.3728    28110    4.52%
   1073    61      242.8976    81      241.4478      252.1834    29577    4.45%
   1210   165      251.3344    17      241.4478      251.3397    32585    4.10%
   1323   221      251.3380    59      241.4478      251.3386    35703    4.10%
   1878   431      244.2897    91      241.4478      248.9249    52710    3.10%
Elapsed time = 3.70 sec. (4008.35 ticks, tree = 0.23 MB, solutions = 9)
   2502   562      245.9551    64      241.4478      246.8219    69900    2.23%
*  2990+  575                          241.4478      245.5639             1.70%
   3118   627      244.3419    92      241.4478      245.1531    86009    1.53%

GUB cover cuts applied:  1
Clique cuts applied:  52
Cover cuts applied:  4
Implied bound cuts applied:  38
Flow cuts applied:  12
Mixed integer rounding cuts applied:  84
Zero-half cuts applied:  31
Lift and project cuts applied:  25
Gomory fractional cuts applied:  6

Root node processing (before b&c):
  Real time             =    0.16 sec. (144.72 ticks)
Sequential b&c:
  Real time             =    5.81 sec. (6395.60 ticks)
                          ------------
Total (root+branch&cut) =    5.97 sec. (6540.32 ticks)

Solution pool: 11 solutions saved.

MIP - Integer optimal, tolerance (0.0001/1e-06):  Objective =  2.4144782224e+02
Current MIP best bound =  2.4147002360e+02 (gap = 0.0222014, 0.01%)
Solution time =    5.97 sec.  Iterations = 95645  Nodes = 3800 (448)
Deterministic time = 6540.32 ticks  (1094.77 ticks/sec)


Incumbent solution
Variable Name           Solution Value
F                           260.000000
f1                            0.912178
f2                           17.640000
y101                          1.000000
y106                          1.000000
y68                           1.000000
y123                          1.000000
y26                           1.000000
y74                           1.000000
y103                          1.000000
y92                           1.000000
y4                            1.000000
y215                          1.000000
y69                           1.000000
y210                          1.000000
y161                          1.000000
y140                          1.000000
y155                          1.000000
s2                            6.000000
s7                            6.000000
s17                           6.000000
s25                           6.000000
s29                           6.000000
s33                           6.000000
s36                           6.000000
s39                           6.000000
s65                           6.000000
s100                          6.000000
s101                          6.440587
s105                          6.000000
s147                          6.000000
s151                          6.000000
s178                          6.000000
s187                          6.000000
s213                          6.000000
s234                          6.030000
s43                           6.040000
s200                          6.040000
s82                           6.050000
s223                          6.050000
s185                          6.090000
s204                          6.180000
s106                          6.803602
s209                          6.240000
s160                          6.290000
s68                           6.410000
s123                          7.154234
s26                           7.344636
s74                           7.459776
s103                          6.781025
s92                           7.247644
s135                          6.600000
s98                           6.650000
s4                            7.452752
s215                          7.478638
s69                           7.532135
s210                          7.818711
s73                           6.890000
s201                          6.920000
s85                           6.930000
s161                          6.940000
s140                          7.561353
s155                          7.973993
x64x161x1                     1.000000
x176x215x1                    1.000000
x34x106x1                     1.000000
x128x69x1                     1.000000
x64x161x2                     1.000000
x138x4x2                      1.000000
x231x103x2                    2.000000
x176x92x2                     1.000000
x136x101x2                    1.000000
x105x74x2                     1.000000
x18x106x2                     1.000000
x111x92x2                     1.000000
x111x210x2                    1.000000
x128x74x2                     1.000000
x138x4x3                      1.000000
x136x101x3                    1.000000
x34x123x3                     1.000000
x18x123x3                     1.000000
x19x26x3                      2.000000
x228x69x3                     1.000000
x228x140x3                    1.000000
x99x68x3                      1.000000
x41x68x3                      1.000000
x101x210x2                    1.000000
x101x0x3                      1.000000
x106x0x1                      1.000000
x106x0x2                      1.000000
x68x215x3                     1.000000
x68x140x3                     1.000000
x123x0x3                      2.000000
x26x0x3                       2.000000
x74x0x2                       2.000000
x103x0x2                      2.000000
x92x0x2                       2.000000
x4x0x2                        1.000000
x4x0x3                        1.000000
x215x0x1                      1.000000
x215x0x3                      1.000000
x69x0x1                       1.000000
x69x0x3                       1.000000
x210x0x2                      2.000000
x161x155x1                    1.000000
x161x155x2                    1.000000
x140x0x3                      2.000000
x155x0x1                      1.000000
x155x0x2                      1.000000
s64                           4.961323
z64z161z1                     1.000000
z64z161z2                     1.000000
s138                          5.283805
z138z4z2                      1.000000
z138z4z3                      1.000000
s231                          5.225334
z231z103z2                    1.000000
z231z92z2                     1.000000
z231z210z2                    1.000000
s176                          5.366398
z176z92z2                     1.000000
z176z215z1                    1.000000
s136                          5.163627
z136z101z2                    1.000000
z136z101z3                    1.000000
z136z210z2                    1.000000
z136z73z3                     1.000000
z136z85z3                     1.000000
z136z140z3                    1.000000
z105z74z2                     1.000000
s34                           5.484568
z34z106z1                     1.000000
z34z123z3                     1.000000
s18                           5.550000
z18z106z2                     1.000000
z18z123z3                     1.000000
s19                           5.730000
z19z26z3                      1.000000
s111                          5.730000
z111z74z2                     1.000000
z111z92z2                     1.000000
z111z210z2                    1.000000
s128                          5.830000
z128z74z2                     1.000000
z128z69z1                     1.000000
s228                          5.990000
z228z69z3                     1.000000
z228z140z3                    1.000000
s99                           4.528310
z99z68z3                      1.000000
z99z123z3                     1.000000
z99z26z3                      1.000000
z99z73z3                      1.000000
z99z85z3                      1.000000
z99z140z3                     1.000000
s41                           4.553370
z41z68z3                      1.000000
z41z123z3                     1.000000
z41z26z3                      1.000000
z41z73z3                      1.000000
z41z85z3                      1.000000
z41z140z3                     1.000000
z101z210z2                    1.000000
z68z215z3                     1.000000
z68z140z3                     1.000000
z161z155z1                    1.000000
z161z155z2                    1.000000
All other variables in the range 1-1652 are 0.
